NAME          COPTPROB
OBJSENSE
  MIN
ROWS
 N  __OBJ___
 L  C4      
 L  C17     
 L  C22     
 L  C32     
 L  C121    
 L  C124    
 L  C177    
COLUMNS
    MARKER    'MARKER'                 'INTORG'
    x322      __OBJ___  20
    x322      C4        -1
    x322      C124      -1
    x504      __OBJ___  38
    x504      C17       -1
    x504      C121      -1
    x627      __OBJ___  16
    x627      C4        -1
    x627      C22       -1
    x1568     __OBJ___  104
    x1568     C17       -1
    x1568     C32       -1
    x2174     __OBJ___  19
    x2174     C121      -1
    x2174     C177      -1
    x2370     __OBJ___  83
    x2370     C22       -1
    x2370     C32       -1
    x2582     __OBJ___  26
    x2582     C4        -1
    x2582     C17       -1
    x2945     __OBJ___  34
    x2945     C124      -1
    x2945     C177      -1
    MARKER    'MARKER'                 'INTEND'
RHS
    RHS       __OBJ___  -4913
    RHS       C4        -1
    RHS       C17       -1
    RHS       C22       -1
    RHS       C32       -1
    RHS       C121      -1
    RHS       C124      -1
    RHS       C177      -1
BOUNDS
 UP BOUND     x322      1
 UP BOUND     x504      1
 UP BOUND     x627      1
 UP BOUND     x1568     1
 UP BOUND     x2174     1
 UP BOUND     x2370     1
 UP BOUND     x2582     1
 UP BOUND     x2945     1
ENDATA
